Selected objective sense:  MINIMIZE
Selected objective  name:  OBJ
Selected RHS        name:  RHS1
Selected bound      name:  BND1
CPXPARAM_Preprocessing_Presolve                  0
CPXPARAM_LPMethod                                4
CPXPARAM_Threads                                 1
CPXPARAM_SolutionType                            2
CPXPARAM_TimeLimit                               3600
Tried aggregator 0 times.
Reduced presolve eliminated 166 rows and 166 columns.
Reduced LP has 16242 rows, 94746 columns, and 2143045 nonzeros.
Presolve time = 0.47 sec. (254.16 ticks)
Parallel mode: none, using 1 thread for barrier
Number of nonzeros in lower triangle of A*A' = 368473
Using Approximate Minimum Degree ordering
Total time for automatic ordering = 0.05 sec. (82.82 ticks)
Summary statistics for Cholesky factor:
  Rows in Factor            = 16242
  Integer space required    = 383887
  Total non-zeros in factor = 384968
  Total FP ops to factor    = 9248520
 Itn      Primal Obj        Dual Obj  Prim Inf Upper Inf  Dual Inf Inf Ratio
   0   2.8509618e+08  -1.3169700e+07  8.25e+08  0.00e+00  4.08e+06  1.00e+00
   1   5.8957377e+07  -3.5935217e+06  1.37e+08  2.20e-11  2.65e+06  6.96e-03
   2   3.4155367e+07  -7.5988146e+06  8.65e+07  8.57e-12  5.09e+05  9.05e-03
   3   1.1223685e+07  -7.5126033e+06  3.15e+07  1.71e-11  5.01e+05  8.84e-03
   4   2.5056080e+06  -2.5887313e+06  7.62e+06  3.90e-11  1.60e+05  3.90e-03
   5   1.1263131e+05  -2.0130966e+06  9.07e+05  9.28e-12  1.21e+05  6.70e-03
   6   3.8279279e+04  -6.2950904e+05  1.45e+05  1.13e-11  3.90e+04  2.87e-02
   7   2.6292304e+04  -9.1197842e+04  2.55e+04  1.15e-11  6.86e+03  2.11e-01
   8   2.3677446e+04   1.2591758e+04  4.33e+01  4.85e-11  6.61e+02  2.16e+00
   9   2.3513528e+04   1.9081218e+04  2.38e+01  2.39e-11  2.61e+02  8.82e+00
  10   2.3320054e+04   2.2277327e+04  7.04e+00  1.68e-11  6.04e+01  4.42e+01
  11   2.3241621e+04   2.2799074e+04  2.97e+00  8.20e-12  2.56e+01  1.21e+02
  12   2.3222292e+04   2.3038791e+04  2.32e+00  2.78e-11  8.26e+00  5.37e+02
  13   2.3207527e+04   2.3078461e+04  1.93e+00  4.33e-11  4.80e+00  9.13e+02
  14   2.3205200e+04   2.3096795e+04  1.87e+00  6.77e-11  3.25e+00  1.30e+03
  15   2.3202821e+04   2.3098816e+04  1.81e+00  2.63e-11  3.08e+00  1.36e+03
  16   2.3193891e+04   2.3109673e+04  1.57e+00  7.65e-11  2.16e+00  1.81e+03
  17   2.3191056e+04   2.3116744e+04  1.49e+00  6.64e-11  1.59e+00  2.29e+03
  18   2.3190338e+04   2.3117485e+04  1.47e+00  8.21e-11  1.53e+00  2.35e+03
  19   2.3182592e+04   2.3124237e+04  1.26e+00  9.76e-11  9.87e-01  3.18e+03
  20   2.3178820e+04   2.3129386e+04  1.15e+00  1.23e-10  6.21e-01  4.25e+03
  21   2.3178585e+04   2.3133451e+04  1.15e+00  1.08e-10  3.47e-01  5.76e+03
  22   2.3175206e+04   2.3134027e+04  1.05e+00  1.33e-10  3.02e-01  6.09e+03
  23   2.3163245e+04   2.3134659e+04  7.07e-01  1.03e-10  2.61e-01  6.49e+03
  24   2.3154185e+04   2.3139767e+04  4.12e-01  3.13e-11  6.80e-02  1.31e+04
  25   2.3154145e+04   2.3140809e+04  4.10e-01  5.81e-11  4.14e-02  1.77e+04
  26   2.3153582e+04   2.3141092e+04  3.91e-01  4.62e-11  3.25e-02  1.99e+04
  27   2.3151694e+04   2.3141407e+04  3.26e-01  6.83e-11  2.32e-02  2.29e+04
  28   2.3151040e+04   2.3142223e+04  3.03e-01  5.43e-11  5.79e-03  3.69e+04
  29   2.3150183e+04   2.3142278e+04  2.73e-01  3.85e-11  4.34e-03  3.88e+04
  30   2.3148198e+04   2.3142582e+04  2.01e-01  2.15e-11  1.01e-03  5.17e+04
  31   2.3147055e+04   2.3142810e+04  1.57e-01  3.65e-11  2.52e-04  6.77e+04
  32   2.3146250e+04   2.3143001e+04  1.25e-01  5.32e-11  1.14e-04  1.01e+05
  33   2.3146231e+04   2.3143077e+04  1.24e-01  2.18e-11  2.86e-05  1.17e+05
  34   2.3145776e+04   2.3143098e+04  1.05e-01  1.72e-11  2.54e-05  1.26e+05
  35   2.3144956e+04   2.3143128e+04  7.24e-02  3.25e-11  7.72e-06  1.41e+05
  36   2.3144558e+04   2.3143214e+04  5.55e-02  2.80e-11  2.31e-06  2.02e+05
  37   2.3144460e+04   2.3143218e+04  5.12e-02  1.41e-11  2.19e-06  2.06e+05
  38   2.3144313e+04   2.3143245e+04  4.47e-02  1.94e-11  1.56e-06  2.36e+05
  39   2.3144286e+04   2.3143288e+04  4.35e-02  3.99e-11  5.99e-07  3.26e+05
  40   2.3144272e+04   2.3143298e+04  4.28e-02  4.70e-11  2.54e-07  3.67e+05
  41   2.3143842e+04   2.3143307e+04  2.37e-02  2.17e-11  6.34e-08  3.91e+05
  42   2.3143797e+04   2.3143334e+04  2.15e-02  3.68e-11  3.08e-08  5.66e+05
  43   2.3143792e+04   2.3143340e+04  2.12e-02  3.00e-11  2.37e-08  6.26e+05
  44   2.3143792e+04   2.3143340e+04  2.12e-02  5.22e-11  2.34e-08  6.29e+05
  45   2.3143785e+04   2.3143344e+04  2.09e-02  5.36e-11  1.72e-08  6.91e+05
  46   2.3143768e+04   2.3143347e+04  2.01e-02  3.65e-11  1.41e-08  7.25e+05
  47   2.3143665e+04   2.3143352e+04  1.50e-02  2.69e-11  8.19e-09  8.16e+05
  48   2.3143660e+04   2.3143365e+04  1.47e-02  3.46e-11  3.21e-09  1.12e+06
  49   2.3143660e+04   2.3143365e+04  1.47e-02  3.83e-11  3.09e-09  1.12e+06
  50   2.3143660e+04   2.3143363e+04  1.47e-02  1.00e-10  2.69e-09  1.15e+06
  51   2.3143570e+04   2.3143368e+04  1.01e-02  2.88e-11  9.67e-10  1.27e+06
  52   2.3143560e+04   2.3143371e+04  9.61e-03  3.02e-11  7.08e-10  1.43e+06
  53   2.3143558e+04   2.3143377e+04  9.52e-03  3.90e-11  3.66e-10  1.85e+06
  54   2.3143534e+04   2.3143377e+04  8.23e-03  2.15e-11  3.91e-10  1.88e+06
  55   2.3143530e+04   2.3143380e+04  8.02e-03  2.86e-11  1.83e-10  2.26e+06
  56   2.3143506e+04   2.3143380e+04  6.70e-03  3.52e-11  1.52e-10  2.32e+06
  57   2.3143489e+04   2.3143383e+04  5.77e-03  1.58e-11  1.35e-10  3.04e+06
  58   2.3143478e+04   2.3143385e+04  5.15e-03  2.10e-11  7.28e-11  3.40e+06
  59   2.3143461e+04   2.3143386e+04  4.20e-03  2.56e-11  1.13e-10  4.09e+06
  60   2.3143457e+04   2.3143387e+04  3.98e-03  1.88e-11  6.89e-11  4.51e+06
  61   2.3143441e+04   2.3143388e+04  3.03e-03  1.54e-11  6.77e-11  5.18e+06
  62   2.3143439e+04   2.3143388e+04  2.90e-03  1.70e-11  6.78e-11  5.46e+06
  63   2.3143432e+04   2.3143389e+04  2.53e-03  1.82e-11  9.69e-11  6.09e+06
  64   2.3143432e+04   2.3143389e+04  2.51e-03  3.92e-11  6.67e-11  6.23e+06
  65   2.3143432e+04   2.3143389e+04  2.51e-03  4.90e-11  7.82e-11  6.23e+06
  66   2.3143432e+04   2.3143389e+04  2.50e-03  5.13e-11  9.94e-11  6.45e+06
  67   2.3143429e+04   2.3143390e+04  2.34e-03  8.95e-11  7.36e-11  6.99e+06
  68   2.3143429e+04   2.3143390e+04  2.34e-03  5.61e-11  7.35e-11  7.00e+06
  69   2.3143423e+04   2.3143390e+04  1.96e-03  5.38e-11  7.15e-11  7.67e+06
  70   2.3143422e+04   2.3143391e+04  1.90e-03  3.60e-11  8.00e-11  8.77e+06
  71   2.3143421e+04   2.3143391e+04  1.80e-03  6.63e-11  1.78e-10  9.01e+06
  72   2.3143411e+04   2.3143391e+04  1.16e-03  8.40e-11  1.57e-10  9.05e+06
  73   2.3143410e+04   2.3143391e+04  1.10e-03  1.05e-10  1.15e-10  1.08e+07
  74   2.3143410e+04   2.3143391e+04  1.09e-03  6.45e-11  1.19e-10  1.08e+07
  75   2.3143410e+04   2.3143391e+04  1.09e-03  8.14e-11  8.12e-11  1.08e+07
  76   2.3143410e+04   2.3143391e+04  1.09e-03  2.69e-11  7.01e-11  1.08e+07
  77   2.3143409e+04   2.3143391e+04  1.08e-03  7.43e-11  9.28e-11  1.20e+07
  78   2.3143409e+04   2.3143392e+04  1.07e-03  5.07e-11  1.07e-10  1.45e+07
  79   2.3143409e+04   2.3143392e+04  1.06e-03  1.01e-10  1.02e-10  1.51e+07
  80   2.3143409e+04   2.3143392e+04  1.06e-03  7.84e-11  1.50e-10  1.51e+07
  81   2.3143409e+04   2.3143392e+04  1.06e-03  1.04e-10  6.75e-11  1.52e+07
  82   2.3143404e+04   2.3143392e+04  7.37e-04  4.42e-11  7.78e-11  1.54e+07
  83   2.3143404e+04   2.3143392e+04  7.34e-04  4.61e-11  8.14e-11  1.64e+07
  84   2.3143404e+04   2.3143392e+04  7.32e-04  5.53e-11  8.88e-11  1.64e+07
  85   2.3143404e+04   2.3143392e+04  6.83e-04  2.73e-11  9.17e-11  1.67e+07
  86   2.3143404e+04   2.3143392e+04  6.83e-04  7.79e-11  8.33e-11  1.72e+07
  87   2.3143403e+04   2.3143392e+04  6.79e-04  6.78e-11  8.24e-11  1.72e+07
  88   2.3143403e+04   2.3143392e+04  6.79e-04  7.60e-11  1.05e-10  1.73e+07
  89   2.3143400e+04   2.3143392e+04  4.37e-04  7.66e-11  1.11e-10  1.74e+07
  90   2.3143400e+04   2.3143393e+04  4.33e-04  5.71e-11  9.63e-11  2.19e+07
  91   2.3143400e+04   2.3143393e+04  4.32e-04  4.90e-11  1.21e-10  2.20e+07
  92   2.3143400e+04   2.3143393e+04  4.25e-04  6.97e-11  1.15e-10  2.32e+07
  93   2.3143399e+04   2.3143393e+04  3.50e-04  3.59e-11  1.02e-10  2.58e+07
  94   2.3143399e+04   2.3143393e+04  3.46e-04  8.54e-11  1.06e-10  2.60e+07
  95   2.3143399e+04   2.3143393e+04  3.39e-04  6.88e-11  9.10e-11  3.48e+07
  96   2.3143399e+04   2.3143393e+04  3.38e-04  5.64e-11  7.14e-11  3.50e+07
  97   2.3143398e+04   2.3143393e+04  3.05e-04  4.94e-11  6.45e-11  4.09e+07
  98   2.3143395e+04   2.3143394e+04  7.52e-05  3.26e-11  7.78e-11  4.60e+07
  99   2.3143395e+04   2.3143394e+04  6.93e-05  1.36e-11  1.32e-10  4.85e+07
 100   2.3143395e+04   2.3143394e+04  6.83e-05  3.60e-11  1.13e-10  5.06e+07
 101   2.3143395e+04   2.3143394e+04  6.27e-05  2.92e-11  9.91e-11  5.18e+07
 102   2.3143395e+04   2.3143394e+04  6.23e-05  3.60e-11  7.88e-11  5.76e+07
 103   2.3143395e+04   2.3143394e+04  4.20e-05  1.68e-11  8.22e-11  6.94e+07
 104   2.3143395e+04   2.3143394e+04  4.18e-05  1.81e-11  8.06e-11  7.05e+07
 105   2.3143395e+04   2.3143394e+04  3.74e-05  1.97e-11  8.32e-11  7.11e+07
 106   2.3143395e+04   2.3143394e+04  3.64e-05  3.03e-11  9.52e-11  7.90e+07
 107   2.3143395e+04   2.3143394e+04  3.62e-05  5.14e-11  9.03e-11  8.09e+07
 108   2.3143395e+04   2.3143394e+04  3.60e-05  3.13e-11  9.55e-11  9.51e+07
 109   2.3143395e+04   2.3143394e+04  3.36e-05  2.85e-11  9.84e-11  1.21e+08
 110   2.3143395e+04   2.3143394e+04  3.16e-05  3.08e-11  1.04e-10  1.36e+08
Barrier time = 12.42 sec. (20738.52 ticks)

Total time on 1 threads = 12.42 sec. (20738.52 ticks)
Solve time: 12.423694548
Barrier iterations: 110
